units real
atom_style full
read_data system.data

fix mycv all colvars outputs/colvars.conf

thermo 100
thermo_style custom step temp f_mycv[1] f_mycv[2] f_mycv[3]

run 10000