units real
atom_style full

read_data system.data

fix mycv all colvars outputs/colvars.conf

# Add your integrator, thermostat, timestep, etc.