units real
atom_style full

read_data system.data

fix mycv all colvars outputs/colvars.conf

# Additional simulation settings can be added below as needed