# in.lammps

units real
atom_style full

read_data system.data

fix mycv all colvars outputs/colvars.conf

run 10000