# in.lammps

units real
atom_style full
read_data system.data

fix mycv all colvars outputs/colvars.conf

# Additional simulation settings (e.g., force field, timestep) should be added here as needed