Your LAMMPS input and colvars configuration look mostly correct for using the colvars module with your defined collective variables. Here are a few notes and suggestions to ensure smooth execution:

1. **Colvars Module in LAMMPS**  
   Make sure your LAMMPS build includes the colvars package. You can check this by running `lmp -h` and looking for `colvars` in the list of packages. If not present, you need to build LAMMPS with the `-pk colvars` package or install the colvars package separately.

2. **Colvars Input File**  
   Your `colvars.conf` defines three collective variables:
   - `tolerance_factor`: distance between two groups of atoms (8 atoms each)
   - `octahedral_tilt`: angle defined by two triplets of atoms
   - `oxidation_state_balance`: distance between two groups of 3 atoms each

   This syntax is consistent with the colvars module input format.

3. **Fix Command**  
   Your fix command is:
   ```lammps
   fix mycv all colvars outputs/colvars.conf
   ```
   This is correct syntax to attach the colvars fix and specify the configuration file.

4. **Additional Suggestions**  
   - If you want to output the values of these collective variables during the simulation, you can add an output block inside your `colvars.conf` or specify output options in the fix command.
   - For example, to output the colvars values every 100 steps, you can add inside `colvars.conf`:
     ```tcl
     output {
       name colvars_output
       frequency 100
       file colvars.out
       colvars tolerance_factor octahedral_tilt oxidation_state_balance
     }
     ```
   - Or, alternatively, you can specify output options in the fix command line (depending on your LAMMPS version).

5. **Example Minimal Working Input**  
Here is a minimal example of how your LAMMPS input could look with output enabled:

```lammps
units real
atom_style full
read_data system.data

fix mycv all colvars outputs/colvars.conf

# Run for 10000 steps
run 10000
```

And inside `colvars.conf` add at the end:

```tcl
output {
  name colvars_output
  frequency 100
  file colvars.out
  colvars tolerance_factor octahedral_tilt oxidation_state_balance
}
```

This will write the values of your three colvars every 100 steps to `colvars.out`.

---

If you want me to help generate a full example input or modify your colvars file for specific outputs or biases, just let me know!