```tcl
# colvars.conf

colvar {
  name          tolerance_factor
  width         0.01
  lowerBoundary 0.5
  upperBoundary 1.2
  distance {
    atomGroup {
      atoms 1 2 3 4 5 6 7 8
    }
    atomGroup {
      atoms 9 10 11 12 13 14 15 16
    }
  }
  # Custom formula for tolerance factor can be applied externally
}

colvar {
  name          octahedral_factor
  width         0.01
  lowerBoundary 0.4
  upperBoundary 1.0
  distance {
    atomGroup {
      atoms 9 10 11 12 13 14 15 16
    }
    atomGroup {
      atoms 17 18 19 20 21 22 23 24
    }
  }
}

colvar {
  name          octahedral_tilt_angle
  width         1.0
  lowerBoundary 0
  upperBoundary 180
  angle {
    atomGroup {
      atoms 9 10 11
    }
    atomGroup {
      atoms 12 13 14
    }
    atomGroup {
      atoms 15 16 17
    }
  }
}
```
```lammps
# in.lammps

units           real
atom_style      full

read_data       system.data

fix mycv all colvars outputs/colvars.conf

# Additional simulation commands would follow here
```