```tcl
# colvars.conf
colvar {
  name t_A_BX3
  width 0.01
  lowerBoundary 0.5
  upperBoundary 1.5
  distance {
    atomGroup {
      atoms {1}  # A-site cation atom ID
    }
    atomGroup {
      atoms {2 3 4}  # B-site cation and three X anions in ABX3 unit
    }
  }
}

colvar {
  name octahedral_tilt
  width 1.0
  lowerBoundary 0
  upperBoundary 180
  angle {
    atomGroup {
      atoms {3}  # X anion atom ID 1
    }
    atomGroup {
      atoms {2}  # B-site cation atom ID
    }
    atomGroup {
      atoms {4}  # X anion atom ID 2
    }
  }
}

colvar {
  name double_perov_dist_ratio
  width 0.01
  lowerBoundary 0.5
  upperBoundary 2.0
  distance {
    atomGroup {
      atoms {1}  # A-site cation atom ID
    }
    atomGroup {
      atoms {5}  # B' cation atom ID in A2BB'X6
    }
  }
}
```
```lammps
# in.lammps
units real
atom_style atomic

read_data system.data

fix mycv all colvars outputs/colvars.conf

# (additional simulation commands would go here)
```