Your input files look well-structured for using the colvars module in LAMMPS. Here's a brief overview and a few suggestions to ensure smooth execution:

### colvars.conf
- Defines three collective variables (colvars):
  - **tolerance_factor**: distance between two groups of atoms (1-10 and 11-20).
  - **octahedral_tilt**: angle defined by three groups of atoms.
  - **oxidation_state_variance**: variance of the oxidation_state property for atoms 1, 2, 11, and 12.

### in.lammps
- Loads your system and applies the colvars fix referencing `outputs/colvars.conf`.

---

### Suggestions and Checks:

1. **Directory for colvars.conf**:
   - Your LAMMPS input references `outputs/colvars.conf`.
   - Ensure the `outputs` directory exists and contains `colvars.conf`.
   - If not, either create the directory or adjust the path in the fix command.

2. **Colvars Module**:
   - Make sure LAMMPS is built with the colvars package enabled.
   - You can check this by running `lmp -h` or `lmp -help` and looking for colvars.

3. **Atom Properties**:
   - The `oxidation_state` property must be defined in your LAMMPS data or through a compute.
   - If it’s a custom per-atom property, ensure it’s assigned correctly before the fix.

4. **Output and Logging**:
   - You might want to add output commands to log or dump the colvars values, for example:
     ```lammps
     fix colvars_out all colvars outputs/colvars.conf
     variable tol equal f_mycv[1]
     variable tilt equal f_mycv[2]
     variable oxvar equal f_mycv[3]
     thermo_style custom step temp v_tol v_tilt v_oxvar
     ```
   - Adjust indices `[1]`, `[2]`, `[3]` depending on how colvars outputs are indexed.

---

If you want, I can help you extend the LAMMPS input file with output commands or help with defining the oxidation_state property. Just let me know!