Your `colvars.conf` and `in.lammps` files look well-structured for defining collective variables (colvars) in LAMMPS using the colvars module. Here's a brief overview and some suggestions to ensure everything works smoothly:

### colvars.conf
- Defines three colvars:
  - `tolerance_factor`: a distance-based colvar between two groups of atoms.
  - `octahedral_tilt`: an angle-based colvar involving three atom groups.
  - `oxidation_state_variance`: a custom function colvar calculating the variance of the oxidation state property for a group of atoms.

Make sure:
- The `oxidation_state` property is defined and accessible in your LAMMPS simulation (e.g., via atom properties or a custom compute).
- Atom indices correspond correctly to your system.

### in.lammps
- Loads the system and applies the colvars fix referencing your `colvars.conf`.
- You might want to add thermostat, integrator, timestep, and output commands depending on your simulation goals.

---

### Example additions to `in.lammps` for a basic NVT run:

```lammps
units real
atom_style full
read_data system.data

fix mycv all colvars outputs/colvars.conf

# Define timestep
timestep 1.0

# Define thermostat
fix nvt all nvt temp 300.0 300.0 100.0

# Output settings
thermo 100
thermo_style custom step temp pe etotal

# Run simulation
run 10000
```

---

If you want me to help generate a complete LAMMPS input script with these colvars integrated or troubleshoot specific issues, just let me know!