```tcl
# colvars.conf

# Collective Variable 1: Average B–X bond length
atomGroup {
  name b_atoms
  atoms 2 3 4 5 6 7 8 9 10
}
atomGroup {
  name x_atoms
  atoms 11 12 13 14 15 16 17 18 19 20 21 22 23 24 25 26 27 28
}
colvar {
  name avg_bx_bond_length
  distance {
    group1 { atomGroup b_atoms }
    group2 { atomGroup x_atoms }
    componentCoeff 1.0  # average over all pairs
  }
  outputAppliedForce on
}

# Collective Variable 2: Octahedral distortion parameter of BX6
colvar {
  name octahedral_distortion
  angle {
    group1 { atomGroup x_atoms }
    group2 { atomGroup b_atoms }
    group3 { atomGroup x_atoms }
    angleType cosine
  }
  outputAppliedForce on
}

# Collective Variable 3: Tolerance factor proxy (ratio of A–X to B–X distances)
atomGroup {
  name a_atoms
  atoms 1
}
colvar {
  name tolerance_factor_proxy
  distance {
    group1 { atomGroup a_atoms }
    group2 { atomGroup x_atoms }
  }
  outputAppliedForce on
}
```
```lammps
# in.lammps

units real
atom_style full

read_data system.data

fix mycv all colvars outputs/colvars.conf

# Additional simulation settings can be added below as needed
```